c description: Random 3-CNF over 10 variables and 5 clauses
c generator: CNFgen (0.9.3-1)
c copyright: (C) 2012-2022 Massimo Lauria <massimo.lauria@uniroma1.it>
c url: https://massimolauria.net/cnfgen
c command line: cnfgen randkcnf 3 10 5
c
p cnf 10 5
2 8 10 0
-1 6 -7 0
-3 -4 -9 0
1 8 9 0
1 -3 -5 0